qbf_easy_train/easy_2964_SAT.qdimacs
p cnf 22 47
a 3 14 0
e 1 2 4 5 6 7 8 9 10 11 12 13 15 16 17 18 19 20 21 22 0
-2 3 -4 0
2 -3 -4 0
-2 -3 4 0
2 3 4 0
-5 -1 0
-5 -4 0
1 4 5 0
-6 7 -8 0
6 -7 -8 0
-6 -7 8 0
6 7 8 0
9 -2 0
9 2 0
-11 -9 0
-11 10 0
9 -10 11 0
13 7 0
13 12 0
-7 -12 -13 0
14 -11 0
14 -13 0
11 13 -14 0
-14 15 0
14 15 0
-16 8 0
-16 -15 0
-8 15 16 0
-18 -17 0
-18 -6 0
17 6 18 0
-19 -16 0
-19 18 0
16 -18 19 0
-20 5 0
-20 -19 0
-5 19 20 0
21 -2 0
21 6 0
2 -6 -21 0
22 20 0
22 -21 0
-20 21 -22 0
15 -16 -9 0
15 -2 -5 -9 0
-12 -19 -13 5 -8 0
-12 8 16 -14 0
22 0
