sat_easy_train/easy_2964_SAT.dimacs
p cnf 101 323
3 1 0
3 2 0
-1 -2 -3 0
5 3 0
5 4 0
-3 -4 -5 0
-5 -4 -6 0
5 4 -6 0
-5 4 6 0
5 -4 6 0
9 7 0
9 -8 0
-7 8 -9 0
10 6 0
10 9 0
-6 -9 -10 0
11 -3 0
11 4 0
3 -4 -11 0
12 11 0
12 4 0
-11 -4 -12 0
13 -14 -15 0
-13 14 -15 0
13 14 15 0
-13 -14 15 0
16 -15 0
16 14 0
15 -14 -16 0
-19 17 0
-19 18 0
-17 -18 19 0
20 -16 0
20 19 0
16 -19 -20 0
-21 -12 0
-21 -20 0
12 20 21 0
-10 -21 -22 0
10 21 -22 0
-10 21 22 0
10 -21 22 0
24 -23 0
24 -1 0
23 1 -24 0
25 22 0
25 -24 0
-22 24 -25 0
-5 -26 -27 0
5 26 -27 0
-5 26 27 0
5 -26 27 0
-3 28 0
3 28 0
29 -26 0
29 -28 0
26 28 -29 0
30 -27 0
30 29 0
27 -29 -30 0
30 13 -31 0
-30 -13 -31 0
30 -13 31 0
-30 13 31 0
-32 -6 0
-32 26 0
6 -26 32 0
33 -31 0
33 -32 0
31 32 -33 0
-33 -34 -35 0
33 34 -35 0
-33 34 35 0
33 -34 35 0
36 -9 0
36 -14 0
9 14 -36 0
-38 -6 0
-38 37 0
6 -37 38 0
39 -18 0
39 -38 0
18 38 -39 0
-40 16 0
-40 39 0
-16 -39 40 0
-41 36 0
-41 40 0
-36 -40 41 0
-42 -35 0
-42 -41 0
35 41 42 0
44 -23 -45 0
-44 23 -45 0
44 23 45 0
-44 -23 45 0
-43 -45 -46 0
43 45 -46 0
-43 45 46 0
43 -45 46 0
47 5 0
47 -15 0
-5 15 -47 0
-48 -46 0
-48 47 0
46 -47 48 0
-49 -26 0
-49 14 0
26 -14 49 0
23 -14 -50 0
-23 14 -50 0
23 14 50 0
-23 -14 50 0
-51 50 0
-51 -28 0
-50 28 51 0
49 51 -52 0
-49 -51 -52 0
49 -51 52 0
-49 51 52 0
-52 -45 -53 0
52 45 -53 0
-52 45 53 0
52 -45 53 0
-54 -14 0
-54 53 0
14 -53 54 0
-55 -2 0
-55 -4 0
2 4 55 0
-11 -55 -56 0
11 55 -56 0
-11 55 56 0
11 -55 56 0
-58 -57 0
-58 -29 0
57 29 58 0
-59 56 0
-59 -58 0
-56 58 59 0
-60 54 0
-60 -59 0
-54 59 60 0
48 60 -61 0
-48 -60 -61 0
48 -60 61 0
-48 60 61 0
62 -42 0
62 -61 0
42 61 -62 0
15 -3 -63 0
-15 3 -63 0
15 3 63 0
-15 -3 63 0
-28 -63 -64 0
28 63 -64 0
-28 63 64 0
28 -63 64 0
65 64 0
65 -38 0
-64 38 -65 0
66 65 0
66 13 0
-65 -13 -66 0
-26 23 -67 0
26 -23 -67 0
-26 -23 67 0
26 23 67 0
68 -67 0
68 28 0
67 -28 -68 0
66 -68 -69 0
-66 68 -69 0
66 68 69 0
-66 -68 69 0
70 -4 0
70 -6 0
4 6 -70 0
16 70 -71 0
-16 -70 -71 0
16 -70 71 0
-16 70 71 0
72 -69 0
72 -71 0
69 71 -72 0
-73 62 0
-73 72 0
-62 -72 73 0
-74 40 0
-74 64 0
-40 -64 74 0
-75 51 0
-75 -74 0
-51 74 75 0
-76 75 0
-76 26 0
-75 -26 76 0
77 -67 0
77 28 0
67 -28 -77 0
-67 -77 -78 0
67 77 -78 0
-67 77 78 0
67 -77 78 0
79 78 0
79 -15 0
-78 15 -79 0
80 -76 0
80 -79 0
76 79 -80 0
-81 -30 0
-81 -70 0
30 70 81 0
-80 81 -82 0
80 -81 -82 0
-80 -81 82 0
80 81 82 0
39 -27 -83 0
-39 27 -83 0
39 27 83 0
-39 -27 83 0
-84 28 0
-84 83 0
-28 -83 84 0
32 36 -85 0
-32 -36 -85 0
32 -36 85 0
-32 36 85 0
-86 83 0
-86 -85 0
-83 85 86 0
-84 86 -87 0
84 -86 -87 0
-84 -86 87 0
84 86 87 0
-82 -87 -88 0
82 87 -88 0
-82 87 88 0
82 -87 88 0
-70 -11 -89 0
70 11 -89 0
-70 11 89 0
70 -11 89 0
-90 -18 0
-90 67 0
18 -67 90 0
91 89 0
91 90 0
-89 -90 -91 0
92 39 0
92 -27 0
-39 27 -92 0
-93 -4 0
-93 -92 0
4 92 93 0
-94 91 0
-94 -93 0
-91 93 94 0
-95 -88 0
-95 94 0
88 -94 95 0
73 95 -96 0
-73 -95 -96 0
73 -95 96 0
-73 95 96 0
-97 14 0
-97 49 0
-14 -49 97 0
-98 -55 0
-98 14 0
55 -14 98 0
-99 -97 0
-99 -98 0
97 98 99 0
100 -96 0
100 -99 0
96 99 -100 0
101 25 0
101 100 0
-25 -100 -101 0
-53 -87 -9 34 0
17 -58 -88 0
-73 -15 10 31 0
-84 -50 28 -31 -14 0
42 71 0
-88 30 -31 -43 -49 -100 0
-22 79 -72 -48 -14 -64 0
95 3 22 -51 0
-67 -97 63 0
2 -38 -36 13 -25 0
72 -81 -70 -27 0
-5 32 -9 0
-28 55 16 0
-51 41 0
-62 37 -64 -95 -42 60 0
55 -88 87 0
-68 -33 2 0
-74 60 8 -33 0
-84 -38 21 -40 -91 -76 0
58 45 0
97 -5 -79 -53 -70 -81 0
-96 78 4 0
-93 37 0
10 -12 69 18 0
-28 -89 0
7 98 101 -59 0
44 50 -90 0
-27 75 44 61 0
-45 60 -74 -65 43 0
51 -15 82 33 0
85 64 -79 48 0
59 67 0
37 -61 -3 83 0
-27 51 88 -28 0
-41 -46 93 95 23 -11 0
-89 32 75 -81 23 0
92 -33 95 0
60 76 -100 92 -3 0
-21 84 -65 26 36 -40 0
35 48 68 21 54 0
41 -47 33 -38 -26 0
67 93 39 -10 0
101 0
